p cnf 289 1
289 0
w 1 0.848951
w 2 1 1
w 2 -1 0
w 3 2 0.687087
w 3 -2 0.734957
w 4 3 0
w 4 -3 1
w 5 4 0.0620684
w 5 -4 0.183587
w 6 5 0
w 6 -5 1
w 7 6 1
w 7 -6 0
w 8 7 0.087048
w 8 -7 0.200891
w 9 8 1
w 9 -8 0
w 10 9 0.360795
w 10 -9 0.399282
w 11 10 1
w 11 -10 0
w 12 11 0.11971
w 12 -11 0.229275
w 13 12 0.0236987
w 13 -12 0.398321
w 14 13 0.496791
w 14 -13 0.63441
w 15 14 0.183878
w 15 -14 0.369367
w 16 15 1
w 16 -15 0
w 17 16 0.0696442
w 17 -16 0.23509
w 18 1 1
w 18 -1 0
w 19 18 2 0.663369
w 19 18 -2 0.996132
w 19 -18 2 0.702177
w 19 -18 -2 0.86426
w 20 19 3 1
w 20 19 -3 1
w 20 -19 3 1
w 20 -19 -3 0
w 21 20 4 0.557436
w 21 20 -4 0.169195
w 21 -20 4 0.116158
w 21 -20 -4 0.786711
w 22 21 5 0
w 22 21 -5 0
w 22 -21 5 1
w 22 -21 -5 1
w 23 22 6 0.474894
w 23 22 -6 0.820527
w 23 -22 6 0.188809
w 23 -22 -6 0.48247
w 24 23 7 0.0677621
w 24 23 -7 0.552114
w 24 -23 7 0.107121
w 24 -23 -7 0.370009
w 25 24 8 0.72225
w 25 24 -8 0.0333783
w 25 -24 8 0.923959
w 25 -24 -8 0.424427
w 26 25 9 0.124587
w 26 25 -9 0.462359
w 26 -25 9 0.696991
w 26 -25 -9 0.68601
w 27 26 10 0.69344
w 27 26 -10 0.243446
w 27 -26 10 0.0687689
w 27 -26 -10 0.809598
w 28 27 11 1
w 28 27 -11 1
w 28 -27 11 1
w 28 -27 -11 0
w 29 28 12 0.0346288
w 29 28 -12 0.640698
w 29 -28 12 0.406631
w 29 -28 -12 0.223437
w 30 29 13 1
w 30 29 -13 1
w 30 -29 13 1
w 30 -29 -13 0
w 31 30 14 0.603109
w 31 30 -14 0.108032
w 31 -30 14 0.694587
w 31 -30 -14 0.527067
w 32 31 15 0.592226
w 32 31 -15 0.651654
w 32 -31 15 0.994818
w 32 -31 -15 0.289217
w 33 32 16 1
w 33 32 -16 0
w 33 -32 16 1
w 33 -32 -16 0
w 34 33 17 0.611265
w 34 33 -17 0.171023
w 34 -33 17 0.741711
w 34 -33 -17 0.826453
w 35 18 1
w 35 -18 0
w 36 35 19 0.977524
w 36 35 -19 0.734445
w 36 -35 19 0.0845192
w 36 -35 -19 0.100692
w 37 36 20 1
w 37 36 -20 1
w 37 -36 20 1
w 37 -36 -20 0
w 38 37 21 0
w 38 37 -21 1
w 38 -37 21 0
w 38 -37 -21 0
w 39 38 22 0
w 39 38 -22 1
w 39 -38 22 1
w 39 -38 -22 1
w 40 39 23 0.595614
w 40 39 -23 0.476577
w 40 -39 23 0.89175
w 40 -39 -23 0.387869
w 41 40 24 1
w 41 40 -24 0
w 41 -40 24 0
w 41 -40 -24 1
w 42 41 25 0
w 42 41 -25 0
w 42 -41 25 1
w 42 -41 -25 0
w 43 42 26 0
w 43 42 -26 0
w 43 -42 26 1
w 43 -42 -26 0
w 44 43 27 0.110755
w 44 43 -27 0.00405763
w 44 -43 27 0.539019
w 44 -43 -27 0.150133
w 45 44 28 1
w 45 44 -28 0
w 45 -44 28 0
w 45 -44 -28 1
w 46 45 29 0
w 46 45 -29 0
w 46 -45 29 0
w 46 -45 -29 1
w 47 46 30 0.0674411
w 47 46 -30 0.0538182
w 47 -46 30 0.471003
w 47 -46 -30 0.46704
w 48 47 31 0.24638
w 48 47 -31 0.844162
w 48 -47 31 0.703052
w 48 -47 -31 0.106276
w 49 48 32 0
w 49 48 -32 0
w 49 -48 32 0
w 49 -48 -32 1
w 50 49 33 0.208634
w 50 49 -33 0.622586
w 50 -49 33 0.618491
w 50 -49 -33 0.747652
w 51 50 34 0.946289
w 51 50 -34 0.844475
w 51 -50 34 0.95705
w 51 -50 -34 0.887045
w 52 35 0.0699689
w 52 -35 0.423414
w 53 52 36 1
w 53 52 -36 0
w 53 -52 36 1
w 53 -52 -36 1
w 54 53 37 0
w 54 53 -37 1
w 54 -53 37 1
w 54 -53 -37 0
w 55 54 38 1
w 55 54 -38 0
w 55 -54 38 0
w 55 -54 -38 0
w 56 55 39 1
w 56 55 -39 0
w 56 -55 39 1
w 56 -55 -39 1
w 57 56 40 1
w 57 56 -40 1
w 57 -56 40 0
w 57 -56 -40 1
w 58 57 41 1
w 58 57 -41 1
w 58 -57 41 1
w 58 -57 -41 0
w 59 58 42 0
w 59 58 -42 0
w 59 -58 42 1
w 59 -58 -42 0
w 60 59 43 0
w 60 59 -43 1
w 60 -59 43 0
w 60 -59 -43 0
w 61 60 44 0.795105
w 61 60 -44 0.755576
w 61 -60 44 0.512262
w 61 -60 -44 0.318837
w 62 61 45 0.863284
w 62 61 -45 0.354401
w 62 -61 45 0.425787
w 62 -61 -45 0.42294
w 63 62 46 1
w 63 62 -46 1
w 63 -62 46 0
w 63 -62 -46 1
w 64 63 47 0.831341
w 64 63 -47 0.987851
w 64 -63 47 0.870578
w 64 -63 -47 0.28923
w 65 64 48 0.164754
w 65 64 -48 0.821756
w 65 -64 48 0.370629
w 65 -64 -48 0.32127
w 66 65 49 1
w 66 65 -49 1
w 66 -65 49 1
w 66 -65 -49 0
w 67 66 50 0.517089
w 67 66 -50 0.61179
w 67 -66 50 0.636281
w 67 -66 -50 0.0293506
w 68 67 51 0.419745
w 68 67 -51 0.892635
w 68 -67 51 0.285029
w 68 -67 -51 0.845533
w 69 52 1
w 69 -52 0
w 70 69 53 0.0458227
w 70 69 -53 0.741002
w 70 -69 53 0.425837
w 70 -69 -53 0.927854
w 71 70 54 0.413689
w 71 70 -54 0.798431
w 71 -70 54 0.861574
w 71 -70 -54 0.919102
w 72 71 55 0.68333
w 72 71 -55 0.289731
w 72 -71 55 0.284455
w 72 -71 -55 0.179691
w 73 72 56 0.0955813
w 73 72 -56 0.959775
w 73 -72 56 0.743732
w 73 -72 -56 0.976286
w 74 73 57 0
w 74 73 -57 1
w 74 -73 57 0
w 74 -73 -57 1
w 75 74 58 1
w 75 74 -58 1
w 75 -74 58 0
w 75 -74 -58 0
w 76 75 59 0.409978
w 76 75 -59 0.760246
w 76 -75 59 0.609762
w 76 -75 -59 0.835815
w 77 76 60 0.182105
w 77 76 -60 0.249503
w 77 -76 60 0.486531
w 77 -76 -60 0.0436789
w 78 77 61 1
w 78 77 -61 1
w 78 -77 61 0
w 78 -77 -61 0
w 79 78 62 0.385383
w 79 78 -62 0.829753
w 79 -78 62 0.866475
w 79 -78 -62 0.129115
w 80 79 63 0.343339
w 80 79 -63 0.484637
w 80 -79 63 0.418605
w 80 -79 -63 0.849553
w 81 80 64 0.450917
w 81 80 -64 0.248402
w 81 -80 64 0.341964
w 81 -80 -64 0.328761
w 82 81 65 0.210723
w 82 81 -65 0.738739
w 82 -81 65 0.723073
w 82 -81 -65 0.820485
w 83 82 66 0.411173
w 83 82 -66 0.00259026
w 83 -82 66 0.824058
w 83 -82 -66 0.897704
w 84 83 67 0
w 84 83 -67 1
w 84 -83 67 0
w 84 -83 -67 0
w 85 84 68 1
w 85 84 -68 1
w 85 -84 68 1
w 85 -84 -68 0
w 86 69 0.717385
w 86 -69 0.88979
w 87 86 70 1
w 87 86 -70 0
w 87 -86 70 1
w 87 -86 -70 0
w 88 87 71 0.562885
w 88 87 -71 0.915668
w 88 -87 71 0.950572
w 88 -87 -71 0.773609
w 89 88 72 0.673644
w 89 88 -72 0.594094
w 89 -88 72 0.228961
w 89 -88 -72 0.0848168
w 90 89 73 0.0530191
w 90 89 -73 0.982521
w 90 -89 73 0.642953
w 90 -89 -73 0.0456823
w 91 90 74 1
w 91 90 -74 0
w 91 -90 74 0
w 91 -90 -74 0
w 92 91 75 0
w 92 91 -75 0
w 92 -91 75 1
w 92 -91 -75 0
w 93 92 76 0.176254
w 93 92 -76 0.271793
w 93 -92 76 0.969618
w 93 -92 -76 0.763161
w 94 93 77 0
w 94 93 -77 1
w 94 -93 77 1
w 94 -93 -77 0
w 95 94 78 0
w 95 94 -78 1
w 95 -94 78 1
w 95 -94 -78 1
w 96 95 79 1
w 96 95 -79 1
w 96 -95 79 1
w 96 -95 -79 0
w 97 96 80 0
w 97 96 -80 0
w 97 -96 80 1
w 97 -96 -80 0
w 98 97 81 0
w 98 97 -81 1
w 98 -97 81 0
w 98 -97 -81 0
w 99 98 82 0.231964
w 99 98 -82 0.0991825
w 99 -98 82 0.507526
w 99 -98 -82 0.995125
w 100 99 83 1
w 100 99 -83 1
w 100 -99 83 0
w 100 -99 -83 1
w 101 100 84 0
w 101 100 -84 0
w 101 -100 84 0
w 101 -100 -84 1
w 102 101 85 0.184604
w 102 101 -85 0.372248
w 102 -101 85 0.883078
w 102 -101 -85 0.845503
w 103 86 0.439151
w 103 -86 0.00308393
w 104 103 87 0
w 104 103 -87 1
w 104 -103 87 1
w 104 -103 -87 0
w 105 104 88 0
w 105 104 -88 0
w 105 -104 88 1
w 105 -104 -88 1
w 106 105 89 1
w 106 105 -89 0
w 106 -105 89 1
w 106 -105 -89 0
w 107 106 90 1
w 107 106 -90 1
w 107 -106 90 1
w 107 -106 -90 0
w 108 107 91 0.894624
w 108 107 -91 0.114238
w 108 -107 91 0.704128
w 108 -107 -91 0.0792278
w 109 108 92 1
w 109 108 -92 1
w 109 -108 92 0
w 109 -108 -92 1
w 110 109 93 0.485615
w 110 109 -93 0.117789
w 110 -109 93 0.421545
w 110 -109 -93 0.846909
w 111 110 94 0.704485
w 111 110 -94 0.263913
w 111 -110 94 0.717922
w 111 -110 -94 0.525333
w 112 111 95 0.030866
w 112 111 -95 0.853707
w 112 -111 95 0.556974
w 112 -111 -95 0.702531
w 113 112 96 1
w 113 112 -96 0
w 113 -112 96 1
w 113 -112 -96 0
w 114 113 97 0.897548
w 114 113 -97 0.0948816
w 114 -113 97 0.750346
w 114 -113 -97 0.601676
w 115 114 98 0
w 115 114 -98 0
w 115 -114 98 1
w 115 -114 -98 0
w 116 115 99 1
w 116 115 -99 1
w 116 -115 99 0
w 116 -115 -99 0
w 117 116 100 0.837191
w 117 116 -100 0.152685
w 117 -116 100 0.973038
w 117 -116 -100 0.555113
w 118 117 101 0.885919
w 118 117 -101 0.585979
w 118 -117 101 0.531725
w 118 -117 -101 0.442893
w 119 118 102 0
w 119 118 -102 1
w 119 -118 102 0
w 119 -118 -102 0
w 120 103 0.867645
w 120 -103 0.588039
w 121 120 104 0.617991
w 121 120 -104 0.189715
w 121 -120 104 0.787163
w 121 -120 -104 0.854823
w 122 121 105 0
w 122 121 -105 1
w 122 -121 105 1
w 122 -121 -105 1
w 123 122 106 1
w 123 122 -106 1
w 123 -122 106 0
w 123 -122 -106 1
w 124 123 107 0.319172
w 124 123 -107 0.191559
w 124 -123 107 0.66172
w 124 -123 -107 0.905152
w 125 124 108 0.104613
w 125 124 -108 0.193662
w 125 -124 108 0.477119
w 125 -124 -108 0.422528
w 126 125 109 0
w 126 125 -109 1
w 126 -125 109 1
w 126 -125 -109 1
w 127 126 110 0.910834
w 127 126 -110 0.945364
w 127 -126 110 0.340917
w 127 -126 -110 0.765657
w 128 127 111 1
w 128 127 -111 1
w 128 -127 111 0
w 128 -127 -111 0
w 129 128 112 1
w 129 128 -112 0
w 129 -128 112 1
w 129 -128 -112 0
w 130 129 113 0
w 130 129 -113 1
w 130 -129 113 0
w 130 -129 -113 0
w 131 130 114 0.928818
w 131 130 -114 0.435615
w 131 -130 114 0.0267114
w 131 -130 -114 0.405938
w 132 131 115 0.45191
w 132 131 -115 0.573548
w 132 -131 115 0.798842
w 132 -131 -115 0.744753
w 133 132 116 0
w 133 132 -116 0
w 133 -132 116 0
w 133 -132 -116 1
w 134 133 117 1
w 134 133 -117 0
w 134 -133 117 0
w 134 -133 -117 1
w 135 134 118 0
w 135 134 -118 0
w 135 -134 118 0
w 135 -134 -118 1
w 136 135 119 0.574418
w 136 135 -119 0.0718022
w 136 -135 119 0.897614
w 136 -135 -119 0.779953
w 137 120 0
w 137 -120 1
w 138 137 121 0.838418
w 138 137 -121 0.757376
w 138 -137 121 0.114709
w 138 -137 -121 0.69656
w 139 138 122 0
w 139 138 -122 1
w 139 -138 122 1
w 139 -138 -122 1
w 140 139 123 0.609624
w 140 139 -123 0.292017
w 140 -139 123 0.541511
w 140 -139 -123 0.0308665
w 141 140 124 0.461942
w 141 140 -124 0.449189
w 141 -140 124 0.406863
w 141 -140 -124 0.521951
w 142 141 125 0.767853
w 142 141 -125 0.0823942
w 142 -141 125 0.360749
w 142 -141 -125 0.737569
w 143 142 126 0.432551
w 143 142 -126 0.635183
w 143 -142 126 0.436765
w 143 -142 -126 0.835355
w 144 143 127 1
w 144 143 -127 0
w 144 -143 127 0
w 144 -143 -127 0
w 145 144 128 1
w 145 144 -128 1
w 145 -144 128 0
w 145 -144 -128 0
w 146 145 129 0.713734
w 146 145 -129 0.89617
w 146 -145 129 0.257974
w 146 -145 -129 0.255245
w 147 146 130 0.148513
w 147 146 -130 0.717187
w 147 -146 130 0.376225
w 147 -146 -130 0.555376
w 148 147 131 0
w 148 147 -131 0
w 148 -147 131 1
w 148 -147 -131 1
w 149 148 132 0
w 149 148 -132 0
w 149 -148 132 0
w 149 -148 -132 1
w 150 149 133 1
w 150 149 -133 0
w 150 -149 133 1
w 150 -149 -133 0
w 151 150 134 0
w 151 150 -134 1
w 151 -150 134 0
w 151 -150 -134 1
w 152 151 135 0.586686
w 152 151 -135 0.700275
w 152 -151 135 0.993324
w 152 -151 -135 0.841931
w 153 152 136 0.141838
w 153 152 -136 0.559118
w 153 -152 136 0.00353592
w 153 -152 -136 0.697214
w 154 137 0.337989
w 154 -137 0.0204426
w 155 154 138 1
w 155 154 -138 0
w 155 -154 138 1
w 155 -154 -138 0
w 156 155 139 0.513245
w 156 155 -139 0.124054
w 156 -155 139 0.839049
w 156 -155 -139 0.0738919
w 157 156 140 0.0241
w 157 156 -140 0.894783
w 157 -156 140 0.768151
w 157 -156 -140 0.541659
w 158 157 141 0.641102
w 158 157 -141 0.345764
w 158 -157 141 0.399528
w 158 -157 -141 0.227788
w 159 158 142 1
w 159 158 -142 0
w 159 -158 142 1
w 159 -158 -142 0
w 160 159 143 0.676886
w 160 159 -143 0.231904
w 160 -159 143 0.427094
w 160 -159 -143 0.0148753
w 161 160 144 1
w 161 160 -144 0
w 161 -160 144 0
w 161 -160 -144 0
w 162 161 145 1
w 162 161 -145 0
w 162 -161 145 1
w 162 -161 -145 0
w 163 162 146 1
w 163 162 -146 1
w 163 -162 146 0
w 163 -162 -146 1
w 164 163 147 0.791117
w 164 163 -147 0.503255
w 164 -163 147 0.86138
w 164 -163 -147 0.190644
w 165 164 148 0.907419
w 165 164 -148 0.583497
w 165 -164 148 0.800762
w 165 -164 -148 0.580769
w 166 165 149 1
w 166 165 -149 0
w 166 -165 149 1
w 166 -165 -149 0
w 167 166 150 0
w 167 166 -150 1
w 167 -166 150 0
w 167 -166 -150 0
w 168 167 151 0
w 168 167 -151 1
w 168 -167 151 0
w 168 -167 -151 0
w 169 168 152 0.439018
w 169 168 -152 0.956677
w 169 -168 152 0.970644
w 169 -168 -152 0.565957
w 170 169 153 0.48626
w 170 169 -153 0.357074
w 170 -169 153 0.322085
w 170 -169 -153 0.34764
w 171 154 0.0531277
w 171 -154 0.255059
w 172 171 155 1
w 172 171 -155 1
w 172 -171 155 1
w 172 -171 -155 0
w 173 172 156 1
w 173 172 -156 0
w 173 -172 156 1
w 173 -172 -156 1
w 174 173 157 0.686613
w 174 173 -157 0.137953
w 174 -173 157 0.592359
w 174 -173 -157 0.216222
w 175 174 158 1
w 175 174 -158 0
w 175 -174 158 1
w 175 -174 -158 0
w 176 175 159 0
w 176 175 -159 1
w 176 -175 159 1
w 176 -175 -159 1
w 177 176 160 1
w 177 176 -160 0
w 177 -176 160 0
w 177 -176 -160 1
w 178 177 161 1
w 178 177 -161 0
w 178 -177 161 0
w 178 -177 -161 0
w 179 178 162 1
w 179 178 -162 1
w 179 -178 162 0
w 179 -178 -162 1
w 180 179 163 0.0509421
w 180 179 -163 0.223016
w 180 -179 163 0.0289808
w 180 -179 -163 0.643301
w 181 180 164 1
w 181 180 -164 0
w 181 -180 164 0
w 181 -180 -164 0
w 182 181 165 0.553712
w 182 181 -165 0.547355
w 182 -181 165 0.484954
w 182 -181 -165 0.408117
w 183 182 166 1
w 183 182 -166 0
w 183 -182 166 1
w 183 -182 -166 1
w 184 183 167 0.412825
w 184 183 -167 0.195415
w 184 -183 167 0.897731
w 184 -183 -167 0.489729
w 185 184 168 1
w 185 184 -168 0
w 185 -184 168 0
w 185 -184 -168 1
w 186 185 169 1
w 186 185 -169 0
w 186 -185 169 0
w 186 -185 -169 1
w 187 186 170 0
w 187 186 -170 0
w 187 -186 170 1
w 187 -186 -170 0
w 188 171 0.930625
w 188 -171 0.0504847
w 189 188 172 0
w 189 188 -172 1
w 189 -188 172 0
w 189 -188 -172 0
w 190 189 173 0
w 190 189 -173 1
w 190 -189 173 0
w 190 -189 -173 0
w 191 190 174 0.310519
w 191 190 -174 0.556256
w 191 -190 174 0.900031
w 191 -190 -174 0.970637
w 192 191 175 0.671939
w 192 191 -175 0.167159
w 192 -191 175 0.39552
w 192 -191 -175 0.494789
w 193 192 176 0.289647
w 193 192 -176 0.960941
w 193 -192 176 0.445473
w 193 -192 -176 0.397539
w 194 193 177 0.822386
w 194 193 -177 0.90067
w 194 -193 177 0.459043
w 194 -193 -177 0.75301
w 195 194 178 0.533427
w 195 194 -178 0.0917519
w 195 -194 178 0.18737
w 195 -194 -178 0.254035
w 196 195 179 1
w 196 195 -179 1
w 196 -195 179 0
w 196 -195 -179 1
w 197 196 180 0.387974
w 197 196 -180 0.726643
w 197 -196 180 0.157346
w 197 -196 -180 0.288005
w 198 197 181 0.68772
w 198 197 -181 0.959944
w 198 -197 181 0.864438
w 198 -197 -181 0.0832406
w 199 198 182 1
w 199 198 -182 0
w 199 -198 182 0
w 199 -198 -182 0
w 200 199 183 1
w 200 199 -183 0
w 200 -199 183 0
w 200 -199 -183 0
w 201 200 184 0
w 201 200 -184 1
w 201 -200 184 0
w 201 -200 -184 0
w 202 201 185 0
w 202 201 -185 1
w 202 -201 185 0
w 202 -201 -185 0
w 203 202 186 0.620082
w 203 202 -186 0.00750561
w 203 -202 186 0.245003
w 203 -202 -186 0.307802
w 204 203 187 0.109441
w 204 203 -187 0.391043
w 204 -203 187 0.422182
w 204 -203 -187 0.560575
w 205 188 0.837856
w 205 -188 0.457182
w 206 205 189 0.123142
w 206 205 -189 0.176175
w 206 -205 189 0.205455
w 206 -205 -189 0.86747
w 207 206 190 0.827706
w 207 206 -190 0.145226
w 207 -206 190 0.211934
w 207 -206 -190 0.637328
w 208 207 191 0.790789
w 208 207 -191 0.042284
w 208 -207 191 0.538664
w 208 -207 -191 0.122315
w 209 208 192 0.0014
w 209 208 -192 0.841816
w 209 -208 192 0.411088
w 209 -208 -192 0.621482
w 210 209 193 0.65609
w 210 209 -193 0.929284
w 210 -209 193 0.816771
w 210 -209 -193 0.765531
w 211 210 194 1
w 211 210 -194 0
w 211 -210 194 1
w 211 -210 -194 0
w 212 211 195 0.618616
w 212 211 -195 0.199951
w 212 -211 195 0.959463
w 212 -211 -195 0.824071
w 213 212 196 1
w 213 212 -196 0
w 213 -212 196 0
w 213 -212 -196 1
w 214 213 197 1
w 214 213 -197 0
w 214 -213 197 0
w 214 -213 -197 0
w 215 214 198 0.194753
w 215 214 -198 0.429729
w 215 -214 198 0.574496
w 215 -214 -198 0.605841
w 216 215 199 0
w 216 215 -199 1
w 216 -215 199 1
w 216 -215 -199 0
w 217 216 200 0
w 217 216 -200 0
w 217 -216 200 0
w 217 -216 -200 1
w 218 217 201 0.136856
w 218 217 -201 0.00369676
w 218 -217 201 0.756303
w 218 -217 -201 0.0963195
w 219 218 202 0.823725
w 219 218 -202 0.703962
w 219 -218 202 0.479545
w 219 -218 -202 0.0363728
w 220 219 203 0.76865
w 220 219 -203 0.926038
w 220 -219 203 0.133902
w 220 -219 -203 0.100038
w 221 220 204 1
w 221 220 -204 0
w 221 -220 204 0
w 221 -220 -204 0
w 222 205 0.835309
w 222 -205 0.864896
w 223 222 206 1
w 223 222 -206 0
w 223 -222 206 0
w 223 -222 -206 0
w 224 223 207 0.501708
w 224 223 -207 0.14138
w 224 -223 207 0.68045
w 224 -223 -207 0.505405
w 225 224 208 0.776769
w 225 224 -208 0.333172
w 225 -224 208 0.721408
w 225 -224 -208 0.480731
w 226 225 209 0.757781
w 226 225 -209 0.00426816
w 226 -225 209 0.581367
w 226 -225 -209 0.68382
w 227 226 210 0
w 227 226 -210 1
w 227 -226 210 0
w 227 -226 -210 1
w 228 227 211 0.44583
w 228 227 -211 0.87683
w 228 -227 211 0.657593
w 228 -227 -211 0.310726
w 229 228 212 1
w 229 228 -212 0
w 229 -228 212 0
w 229 -228 -212 0
w 230 229 213 0
w 230 229 -213 1
w 230 -229 213 0
w 230 -229 -213 1
w 231 230 214 0.0403045
w 231 230 -214 0.230232
w 231 -230 214 0.93031
w 231 -230 -214 0.761713
w 232 231 215 0.743027
w 232 231 -215 0.519494
w 232 -231 215 0.715231
w 232 -231 -215 0.324394
w 233 232 216 1
w 233 232 -216 1
w 233 -232 216 0
w 233 -232 -216 1
w 234 233 217 0.0637863
w 234 233 -217 0.303983
w 234 -233 217 0.858827
w 234 -233 -217 0.72138
w 235 234 218 0.898221
w 235 234 -218 0.194777
w 235 -234 218 0.0309217
w 235 -234 -218 0.12764
w 236 235 219 0.0321621
w 236 235 -219 0.900654
w 236 -235 219 0.876535
w 236 -235 -219 0.174783
w 237 236 220 1
w 237 236 -220 0
w 237 -236 220 1
w 237 -236 -220 0
w 238 237 221 0.295311
w 238 237 -221 0.147009
w 238 -237 221 0.496295
w 238 -237 -221 0.0105422
w 239 222 0
w 239 -222 1
w 240 239 223 0.477204
w 240 239 -223 0.94111
w 240 -239 223 0.722096
w 240 -239 -223 0.459201
w 241 240 224 1
w 241 240 -224 0
w 241 -240 224 0
w 241 -240 -224 0
w 242 241 225 0
w 242 241 -225 0
w 242 -241 225 0
w 242 -241 -225 1
w 243 242 226 0.244543
w 243 242 -226 0.58239
w 243 -242 226 0.878656
w 243 -242 -226 0.598659
w 244 243 227 1
w 244 243 -227 1
w 244 -243 227 0
w 244 -243 -227 0
w 245 244 228 1
w 245 244 -228 1
w 245 -244 228 0
w 245 -244 -228 0
w 246 245 229 1
w 246 245 -229 0
w 246 -245 229 1
w 246 -245 -229 0
w 247 246 230 0
w 247 246 -230 1
w 247 -246 230 0
w 247 -246 -230 0
w 248 247 231 0.549138
w 248 247 -231 0.859784
w 248 -247 231 0.41348
w 248 -247 -231 0.893028
w 249 248 232 0.117353
w 249 248 -232 0.137571
w 249 -248 232 0.148029
w 249 -248 -232 0.996009
w 250 249 233 0.204091
w 250 249 -233 0.0897521
w 250 -249 233 0.919238
w 250 -249 -233 0.664135
w 251 250 234 1
w 251 250 -234 0
w 251 -250 234 0
w 251 -250 -234 0
w 252 251 235 0.239223
w 252 251 -235 0.905304
w 252 -251 235 0.20114
w 252 -251 -235 0.314124
w 253 252 236 0.413595
w 253 252 -236 0.415105
w 253 -252 236 0.253054
w 253 -252 -236 0.352326
w 254 253 237 0
w 254 253 -237 1
w 254 -253 237 1
w 254 -253 -237 0
w 255 254 238 0.687707
w 255 254 -238 0.832791
w 255 -254 238 0.92578
w 255 -254 -238 0.683716
w 256 239 0.129871
w 256 -239 0.773468
w 257 256 240 0
w 257 256 -240 0
w 257 -256 240 1
w 257 -256 -240 0
w 258 257 241 0.414837
w 258 257 -241 0.654481
w 258 -257 241 0.0114597
w 258 -257 -241 0.320141
w 259 258 242 0.325584
w 259 258 -242 0.240306
w 259 -258 242 0.269216
w 259 -258 -242 0.740688
w 260 259 243 1
w 260 259 -243 1
w 260 -259 243 1
w 260 -259 -243 0
w 261 260 244 1
w 261 260 -244 1
w 261 -260 244 0
w 261 -260 -244 0
w 262 261 245 0.83934
w 262 261 -245 0.392585
w 262 -261 245 0.667054
w 262 -261 -245 0.612809
w 263 262 246 0.46106
w 263 262 -246 0.546573
w 263 -262 246 0.766662
w 263 -262 -246 0.526253
w 264 263 247 1
w 264 263 -247 1
w 264 -263 247 0
w 264 -263 -247 1
w 265 264 248 1
w 265 264 -248 1
w 265 -264 248 0
w 265 -264 -248 1
w 266 265 249 0.994897
w 266 265 -249 0.608332
w 266 -265 249 0.514193
w 266 -265 -249 0.290448
w 267 266 250 1
w 267 266 -250 1
w 267 -266 250 0
w 267 -266 -250 1
w 268 267 251 1
w 268 267 -251 0
w 268 -267 251 1
w 268 -267 -251 1
w 269 268 252 0.378212
w 269 268 -252 0.718685
w 269 -268 252 0.136456
w 269 -268 -252 0.144874
w 270 269 253 0
w 270 269 -253 0
w 270 -269 253 1
w 270 -269 -253 0
w 271 270 254 0
w 271 270 -254 0
w 271 -270 254 1
w 271 -270 -254 0
w 272 271 255 0.726704
w 272 271 -255 0.943693
w 272 -271 255 0.518576
w 272 -271 -255 0.240897
w 273 256 1
w 273 -256 0
w 274 273 257 1
w 274 273 -257 1
w 274 -273 257 0
w 274 -273 -257 0
w 275 274 258 0.337816
w 275 274 -258 0.117511
w 275 -274 258 0.862145
w 275 -274 -258 0.927699
w 276 275 259 0
w 276 275 -259 1
w 276 -275 259 1
w 276 -275 -259 1
w 277 276 260 1
w 277 276 -260 0
w 277 -276 260 0
w 277 -276 -260 1
w 278 277 261 0
w 278 277 -261 0
w 278 -277 261 1
w 278 -277 -261 1
w 279 278 262 0
w 279 278 -262 1
w 279 -278 262 0
w 279 -278 -262 0
w 280 279 263 0.859183
w 280 279 -263 0.101045
w 280 -279 263 0.940747
w 280 -279 -263 0.219925
w 281 280 264 0.545267
w 281 280 -264 0.55774
w 281 -280 264 0.838699
w 281 -280 -264 0.407413
w 282 281 265 1
w 282 281 -265 1
w 282 -281 265 0
w 282 -281 -265 0
w 283 282 266 0.957676
w 283 282 -266 0.299388
w 283 -282 266 0.825806
w 283 -282 -266 0.571639
w 284 283 267 0.28486
w 284 283 -267 0.109055
w 284 -283 267 0.526464
w 284 -283 -267 0.692711
w 285 284 268 0.921742
w 285 284 -268 0.0442543
w 285 -284 268 0.522952
w 285 -284 -268 0.557918
w 286 285 269 0.449749
w 286 285 -269 0.417101
w 286 -285 269 0.730983
w 286 -285 -269 0.390496
w 287 286 270 0.452172
w 287 286 -270 0.935763
w 287 -286 270 0.194766
w 287 -286 -270 0.290871
w 288 287 271 1
w 288 287 -271 0
w 288 -287 271 1
w 288 -287 -271 1
w 289 288 272 0.145429
w 289 288 -272 0.187476
w 289 -288 272 0.899699
w 289 -288 -272 0.971234